(set-logic HORN)
(set-info :source |
    Benchmark: C_VC
    Output by Princess (http://www.philipp.ruemmer.org/princess.shtml)
|)
(set-info :status unsat)
(declare-heap Heap Addr HeapObject
 defObj
 ((HeapObject 0) (node 0)) (
  (
   (O_Int (getInt Int))
   (O_Addr (getAddr Addr))
   (O_node (getnode node))
   (defObj)
  )
  (
   (node (h Int) (n Addr))
  )
))
(declare-fun inv_main16 (Heap Int Addr Addr Addr Addr Addr Addr Addr) Bool)
(declare-fun inv_main17 (Heap Int Addr Addr Addr Addr Addr Addr Addr) Bool)
(declare-fun inv_main21 (Heap Int Addr Addr Addr Addr Addr Addr Addr) Bool)
(declare-fun inv_main22 (Heap Int Addr Addr Addr Addr Addr Addr Addr) Bool)
(declare-fun inv_main27 (Heap Int Addr Addr Addr Addr Addr Addr Addr) Bool)
(declare-fun inv_main3 (Heap Int) Bool)
(declare-fun inv_main30 (Heap Int Addr Addr Addr Addr Addr Addr Addr Int) Bool)
(declare-fun inv_main33 (Heap Int Addr Addr Addr Addr Addr Addr Addr) Bool)
(declare-fun inv_main35 (Heap Int Addr Addr Addr Addr Addr Addr Addr) Bool)
(declare-fun inv_main43 (Heap Int Addr Addr Addr Addr Addr Addr Addr) Bool)
(declare-fun inv_main47 (Heap Int Addr Addr Addr Addr Addr Addr Addr) Bool)
(declare-fun inv_main50 (Heap Int Addr Addr Addr Addr Addr Addr Addr) Bool)
(declare-fun inv_main51 (Heap Int Addr Addr Addr Addr Addr Addr Addr) Bool)
(declare-fun inv_main58 (Heap Int Addr Addr Addr Addr Addr Addr Addr) Bool)
(declare-fun inv_main59 (Heap Int Addr Addr Addr Addr Addr Addr Addr) Bool)
(declare-fun inv_main66 (Heap Int Addr Addr Addr Addr Addr Addr Addr) Bool)
(declare-fun inv_main67 (Heap Int Addr Addr Addr Addr Addr Addr Addr) Bool)
(declare-fun inv_main72 (Heap Int Addr Addr Addr Addr Addr Addr Addr) Bool)
(declare-fun inv_main8 (Heap Int Addr Int) Bool)
(assert (forall ((var0 Heap)) (or (not (= var0 emptyHeap)) (inv_main3 var0 1))))
(assert (forall ((var0 Addr) (var1 Addr) (var2 Addr) (var3 Heap) (var4 Addr) (var5 Int) (var6 Addr) (var7 Addr) (var8 Addr) (var9 Addr) (var10 Int) (var11 Addr) (var12 Addr) (var13 Addr) (var14 Addr) (var15 Addr) (var16 Addr) (var17 Heap) (var18 Addr)) (or (not (and (inv_main67 var3 var5 var11 var16 var18 var4 var15 var8 var7) (and (not (= var12 nullAddr)) (and (and (and (and (and (and (and (and (and (= var17 var3) (= var10 var5)) (= var0 var11)) (= var14 var16)) (= var6 var18)) (= var2 var4)) (= var1 var15)) (= var13 var8)) (= var9 var7)) (= var12 (n (getnode (read var3 var7)))))))) (inv_main66 var17 var10 var0 var14 var6 var2 var1 var13 var12))))
(assert (forall ((var0 Addr) (var1 Heap) (var2 Heap) (var3 Addr) (var4 Addr) (var5 Int) (var6 Addr) (var7 Addr) (var8 Addr) (var9 Addr) (var10 Int) (var11 Addr) (var12 Addr) (var13 Addr) (var14 Addr) (var15 Addr) (var16 Addr) (var17 Addr) (var18 Addr)) (or (not (and (inv_main59 var2 var5 var14 var17 var18 var4 var15 var9 var8) (and (not (= var0 nullAddr)) (and (= var16 nullAddr) (and (and (and (and (and (and (and (and (and (= var1 var2) (= var10 var5)) (= var7 var14)) (= var12 var17)) (= var13 var18)) (= var0 var4)) (= var6 var15)) (= var11 var9)) (= var3 var8)) (= var16 (n (getnode (read var2 var8))))))))) (inv_main66 var1 var10 var7 var12 var13 var0 var6 var11 var0))))
(assert (forall ((var0 Addr) (var1 Addr) (var2 Addr) (var3 Addr) (var4 Heap) (var5 Addr) (var6 Int) (var7 Addr) (var8 Addr) (var9 Addr) (var10 Addr) (var11 Int) (var12 Addr) (var13 Addr) (var14 Int) (var15 Addr) (var16 Heap) (var17 Addr) (var18 Addr)) (or (not (and (inv_main43 var4 var6 var10 var15 var18 var5 var13 var9 var8) (and (not (= var17 nullAddr)) (and (= var1 nullAddr) (and (= var14 3) (and (and (and (and (and (and (and (and (and (= var16 var4) (= var11 var6)) (= var12 var10)) (= var0 var15)) (= var1 var18)) (= var17 var5)) (= var7 var13)) (= var3 var9)) (= var2 var8)) (= var14 (h (getnode (read var4 var8)))))))))) (inv_main66 var16 var11 var12 var0 var1 var17 var7 var3 var17))))
(assert (forall ((var0 Int) (var1 Addr) (var2 Addr) (var3 Addr) (var4 Heap) (var5 Addr) (var6 Int) (var7 Addr) (var8 Addr) (var9 Addr)) (or (not (and (inv_main16 var4 var6 var1 var3 var9 var5 var2 var8 var7) (= var0 0))) (inv_main17 var4 var6 var1 var3 var9 var5 var2 var8 var7))))
(assert (forall ((var0 Addr) (var1 Addr) (var2 Addr) (var3 Addr) (var4 Addr) (var5 Int) (var6 Addr) (var7 Heap) (var8 Int) (var9 Int) (var10 Addr) (var11 Addr) (var12 Addr) (var13 Addr) (var14 Heap) (var15 Addr) (var16 Addr) (var17 Int) (var18 Addr) (var19 Heap) (var20 Addr) (var21 Addr) (var22 Addr) (var23 Addr) (var24 Addr) (var25 Addr) (var26 Addr) (var27 Addr) (var28 Heap) (var29 Addr) (var30 Addr) (var31 Addr) (var32 Addr) (var33 Addr) (var34 Addr) (var35 Addr) (var36 Int)) (or (not (and (inv_main35 var7 var8 var13 var18 var21 var26 var31 var29 var11) (and (and (and (not (= var9 3)) (and (and (and (and (and (and (and (and (and (= var28 var7) (= var36 var8)) (= var23 var13)) (= var15 var18)) (= var3 var21)) (= var27 var26)) (= var25 var31)) (= var30 var29)) (= var22 var11)) (= var9 (h (getnode (read var7 var13)))))) (and (and (and (and (and (and (and (and (= var19 var28) (= var17 1)) (= var35 var23)) (= var34 var15)) (= var6 nullAddr)) (= var33 var27)) (= var1 var25)) (= var32 var30)) (= var24 var22))) (and (and (and (and (and (and (and (and (= var14 var19) (= var5 var17)) (= var12 var35)) (= var0 var34)) (= var20 var6)) (= var2 nullAddr)) (= var4 var1)) (= var10 var32)) (= var16 var24))))) (inv_main43 var14 var5 var12 var0 var20 var2 var4 var10 var12))))
(assert (forall ((var0 Addr) (var1 Addr) (var2 Addr) (var3 Heap) (var4 Addr) (var5 Int) (var6 Addr) (var7 Addr) (var8 Int) (var9 Addr) (var10 Addr) (var11 Addr) (var12 Addr) (var13 Addr) (var14 Addr) (var15 Heap) (var16 Addr) (var17 Addr)) (or (not (and (inv_main50 var3 var5 var9 var13 var17 var4 var11 var7 var6) (and (and (and (and (and (and (and (and (= var15 (write var3 var13 (O_node (node (h (getnode (read var3 var13))) var17)))) (= var8 var5)) (= var0 var9)) (= var1 var13)) (= var12 var17)) (= var16 var4)) (= var14 var11)) (= var2 var7)) (= var10 var6)))) (inv_main43 var15 0 var0 var1 var1 var16 var14 var2 var10))))
(assert (forall ((var0 Addr) (var1 Addr) (var2 Addr) (var3 Heap) (var4 Addr) (var5 Addr) (var6 Int) (var7 Addr) (var8 Addr) (var9 Addr) (var10 Addr) (var11 Heap) (var12 Addr) (var13 Addr) (var14 Addr) (var15 Int) (var16 Addr) (var17 Addr)) (or (not (and (inv_main51 var3 var6 var10 var14 var17 var5 var13 var8 var7) (and (and (and (and (and (and (and (and (= var11 (write var3 var14 (O_node (node (h (getnode (read var3 var14))) var5)))) (= var15 var6)) (= var16 var10)) (= var12 var14)) (= var0 var17)) (= var4 var5)) (= var2 var13)) (= var9 var8)) (= var1 var7)))) (inv_main43 var11 1 var16 var12 var0 var12 var2 var9 var1))))
(assert (forall ((var0 Heap) (var1 Heap) (var2 Addr) (var3 Int) (var4 Int) (var5 Addr) (var6 Addr) (var7 Addr) (var8 Addr) (var9 Int) (var10 Addr) (var11 Addr) (var12 Addr) (var13 Addr) (var14 Addr) (var15 Addr) (var16 Addr) (var17 Addr) (var18 Addr)) (or (not (and (inv_main43 var1 var3 var7 var14 var17 var2 var11 var6 var5) (and (not (= var4 3)) (and (and (and (and (and (and (and (and (and (= var0 var1) (= var9 var3)) (= var15 var7)) (= var13 var14)) (= var10 var17)) (= var8 var2)) (= var16 var11)) (= var12 var6)) (= var18 var5)) (= var4 (h (getnode (read var1 var5)))))))) (inv_main47 var0 var9 var15 var18 var10 var8 var16 var12 var18))))
(assert (forall ((var0 Addr) (var1 Addr) (var2 Addr) (var3 Heap) (var4 Addr) (var5 Int) (var6 Int) (var7 Addr) (var8 Addr) (var9 Addr)) (or (not (inv_main30 var3 var5 var0 var2 var9 var4 var1 var8 var7 var6)) (inv_main30 var3 var5 var0 var2 var9 var4 var1 var8 var7 var6))))
(assert (forall ((var0 Heap) (var1 Heap) (var2 Heap) (var3 Int) (var4 Addr) (var5 Addr) (var6 Int) (var7 Addr) (var8 Addr) (var9 Addr) (var10 Addr) (var11 Addr) (var12 Addr) (var13 Addr) (var14 Addr) (var15 Addr) (var16 Addr) (var17 node) (var18 Addr) (var19 Addr) (var20 Addr) (var21 Addr) (var22 Int) (var23 Addr) (var24 Addr) (var25 Addr) (var26 Addr) (var27 Addr) (var28 Addr)) (or (not (and (inv_main21 var2 var3 var7 var12 var14 var18 var25 var21 var5) (and (and (= var16 nullAddr) (and (and (and (and (and (and (and (and (and (= var0 (newHeap (alloc var1 (O_node var17)))) (= var22 0)) (= var20 var24)) (= var9 var8)) (= var28 var11)) (= var26 var10)) (= var27 var23)) (= var13 var19)) (= var15 var4)) (= var16 (newAddr (alloc var1 (O_node var17)))))) (and (and (and (and (and (and (and (and (= var1 (write var2 var5 (O_node (node 1 (n (getnode (read var2 var5))))))) (= var6 var3)) (= var24 var7)) (= var8 var12)) (= var11 var14)) (= var10 var18)) (= var23 var25)) (= var19 var21)) (= var4 var5))))) (inv_main30 var0 var22 var20 var16 var28 var26 var27 var13 var15 1))))
(assert (forall ((var0 Addr) (var1 Heap) (var2 Addr) (var3 Int) (var4 Addr) (var5 Addr) (var6 Heap) (var7 Int) (var8 Addr) (var9 Addr) (var10 Addr) (var11 Addr) (var12 Addr) (var13 Addr) (var14 Addr) (var15 Int) (var16 Addr) (var17 Addr) (var18 Addr) (var19 Addr) (var20 Addr) (var21 Addr) (var22 Addr) (var23 Addr) (var24 Addr) (var25 Addr) (var26 Heap) (var27 node) (var28 Addr)) (or (not (and (inv_main22 var6 var7 var11 var12 var16 var19 var24 var20 var9) (and (and (= var5 nullAddr) (and (and (and (and (and (and (and (and (and (= var1 (newHeap (alloc var26 (O_node var27)))) (= var15 1)) (= var28 var23)) (= var14 var22)) (= var21 var25)) (= var10 var0)) (= var18 var17)) (= var8 var13)) (= var2 var4)) (= var5 (newAddr (alloc var26 (O_node var27)))))) (and (and (and (and (and (and (and (and (= var26 (write var6 var9 (O_node (node 2 (n (getnode (read var6 var9))))))) (= var3 var7)) (= var23 var11)) (= var22 var12)) (= var25 var16)) (= var0 var19)) (= var17 var24)) (= var13 var20)) (= var4 var9))))) (inv_main30 var1 var15 var28 var5 var21 var10 var18 var8 var2 1))))
(assert (forall ((var0 Addr) (var1 Addr) (var2 Addr) (var3 Heap) (var4 Addr) (var5 Int) (var6 Addr) (var7 Addr) (var8 Addr)) (or (not (inv_main17 var3 var5 var0 var2 var8 var4 var1 var7 var6)) (inv_main35 (write var3 var6 (O_node (node 3 (n (getnode (read var3 var6)))))) var5 var0 var2 var8 var4 var1 var7 var6))))
(assert (forall ((var0 Heap) (var1 Int) (var2 Int) (var3 Addr) (var4 Addr) (var5 Heap) (var6 Addr) (var7 Int) (var8 Addr) (var9 Addr) (var10 Addr) (var11 Addr) (var12 Addr) (var13 Addr) (var14 Addr) (var15 Addr) (var16 Addr) (var17 Addr) (var18 Addr)) (or (not (and (inv_main58 var5 var7 var11 var14 var17 var6 var12 var9 var8) (and (= var1 2) (and (and (and (and (and (and (and (and (and (= var0 var5) (= var2 var7)) (= var18 var11)) (= var13 var14)) (= var15 var17)) (= var10 var6)) (= var4 var12)) (= var3 var9)) (= var16 var8)) (= var1 (h (getnode (read var5 var8)))))))) (inv_main59 var0 var2 var18 var13 var15 var10 var4 var3 var16))))
(assert (forall ((var0 Heap) (var1 Heap) (var2 Addr) (var3 Int) (var4 Addr) (var5 Addr) (var6 Addr) (var7 Addr) (var8 Int) (var9 Int) (var10 Addr) (var11 Addr) (var12 Addr) (var13 Addr) (var14 Addr) (var15 Addr) (var16 Addr) (var17 Addr) (var18 Addr)) (or (not (and (inv_main58 var0 var3 var10 var15 var18 var2 var13 var5 var4) (and (not (= var9 2)) (and (and (and (and (and (and (and (and (and (= var1 var0) (= var8 var3)) (= var17 var10)) (= var16 var15)) (= var7 var18)) (= var12 var2)) (= var6 var13)) (= var11 var5)) (= var14 var4)) (= var9 (h (getnode (read var0 var4)))))))) (inv_main72 var1 var8 var17 var16 var7 var12 var6 var11 var14))))
(assert (forall ((var0 Addr) (var1 Addr) (var2 Int) (var3 Heap) (var4 Addr) (var5 Int) (var6 Addr) (var7 Addr) (var8 Addr) (var9 Addr) (var10 Addr) (var11 Addr) (var12 Heap) (var13 Addr) (var14 Addr) (var15 Addr) (var16 Addr) (var17 Int) (var18 Addr)) (or (not (and (inv_main66 var3 var5 var9 var13 var18 var4 var11 var7 var6) (and (not (= var17 1)) (and (and (and (and (and (and (and (and (and (= var12 var3) (= var2 var5)) (= var16 var9)) (= var10 var13)) (= var8 var18)) (= var1 var4)) (= var15 var11)) (= var14 var7)) (= var0 var6)) (= var17 (h (getnode (read var3 var6)))))))) (inv_main72 var12 var2 var16 var10 var8 var1 var15 var14 var0))))
(assert (forall ((var0 Addr) (var1 Addr) (var2 Addr) (var3 Addr) (var4 Addr) (var5 Heap) (var6 Addr) (var7 Int) (var8 Addr) (var9 Addr) (var10 Addr) (var11 Addr) (var12 Addr) (var13 Int) (var14 Addr) (var15 Addr) (var16 Addr) (var17 Heap) (var18 Addr)) (or (not (and (inv_main33 var5 var7 var11 var15 var18 var6 var14 var9 var8) (and (and (and (and (and (and (and (and (and (= var17 var5) (= var13 var7)) (= var3 var11)) (= var0 var15)) (= var12 var18)) (= var16 var6)) (= var10 var14)) (= var1 var9)) (= var4 var8)) (= var2 (n (getnode (read var5 var8))))))) (inv_main16 var17 var13 var3 var0 var12 var16 var10 var1 var2))))
(assert (forall ((var0 Addr) (var1 node) (var2 Addr) (var3 Addr) (var4 Addr) (var5 Addr) (var6 Heap) (var7 Addr) (var8 Int) (var9 Int) (var10 Heap)) (or (not (and (inv_main3 var6 var8) (and (not (= var3 nullAddr)) (and (and (= var10 (newHeap (alloc var6 (O_node var1)))) (= var9 var8)) (= var3 (newAddr (alloc var6 (O_node var1)))))))) (inv_main16 var10 var9 var3 var0 var7 var2 var5 var4 var3))))
(assert (forall ((var0 Int) (var1 Addr) (var2 Addr) (var3 Addr) (var4 Heap) (var5 Addr) (var6 Int) (var7 Addr) (var8 Addr) (var9 Addr)) (or (not (and (inv_main16 var4 var6 var1 var3 var9 var5 var2 var8 var7) (and (not (= var6 0)) (not (= var0 0))))) (inv_main21 var4 var6 var1 var3 var9 var5 var2 var8 var7))))
(assert (forall ((var0 node) (var1 Addr) (var2 Heap) (var3 Heap) (var4 Int) (var5 Addr) (var6 Addr) (var7 Int) (var8 Addr) (var9 Addr) (var10 Addr) (var11 Addr) (var12 Addr) (var13 Int) (var14 Addr) (var15 Addr) (var16 Addr) (var17 Addr) (var18 Addr) (var19 Addr) (var20 Addr) (var21 Heap) (var22 Addr) (var23 Addr) (var24 Addr) (var25 Addr) (var26 Addr) (var27 Addr) (var28 Addr)) (or (not (and (inv_main21 var3 var4 var9 var14 var16 var20 var28 var24 var6) (and (and (not (= var18 nullAddr)) (and (and (and (and (and (and (and (and (and (= var21 (newHeap (alloc var2 (O_node var0)))) (= var13 0)) (= var17 var27)) (= var19 var10)) (= var15 var12)) (= var1 var11)) (= var22 var26)) (= var8 var23)) (= var25 var5)) (= var18 (newAddr (alloc var2 (O_node var0)))))) (and (and (and (and (and (and (and (and (= var2 (write var3 var6 (O_node (node 1 (n (getnode (read var3 var6))))))) (= var7 var4)) (= var27 var9)) (= var10 var14)) (= var12 var16)) (= var11 var20)) (= var26 var28)) (= var23 var24)) (= var5 var6))))) (inv_main27 var21 var13 var17 var18 var15 var1 var22 var8 var25))))
(assert (forall ((var0 Addr) (var1 Int) (var2 Addr) (var3 Heap) (var4 Int) (var5 Int) (var6 Addr) (var7 Heap) (var8 Addr) (var9 Addr) (var10 Addr) (var11 Addr) (var12 Addr) (var13 Addr) (var14 Addr) (var15 Addr) (var16 Addr) (var17 Addr) (var18 Addr) (var19 Addr) (var20 Addr) (var21 Addr) (var22 Addr) (var23 Addr) (var24 Addr) (var25 node) (var26 Addr) (var27 Addr) (var28 Heap)) (or (not (and (inv_main22 var3 var4 var8 var9 var14 var17 var26 var20 var6) (and (and (not (= var11 nullAddr)) (and (and (and (and (and (and (and (and (and (= var7 (newHeap (alloc var28 (O_node var25)))) (= var5 1)) (= var24 var23)) (= var21 var22)) (= var15 var27)) (= var12 var0)) (= var18 var16)) (= var13 var10)) (= var19 var2)) (= var11 (newAddr (alloc var28 (O_node var25)))))) (and (and (and (and (and (and (and (and (= var28 (write var3 var6 (O_node (node 2 (n (getnode (read var3 var6))))))) (= var1 var4)) (= var23 var8)) (= var22 var9)) (= var27 var14)) (= var0 var17)) (= var16 var26)) (= var10 var20)) (= var2 var6))))) (inv_main27 var7 var5 var24 var11 var15 var12 var18 var13 var19))))
(assert (forall ((var0 Addr) (var1 Addr) (var2 Addr) (var3 Heap) (var4 Addr) (var5 Int) (var6 Addr) (var7 Addr) (var8 Addr)) (or (not (inv_main27 var3 var5 var0 var2 var8 var4 var1 var7 var6)) (inv_main33 (write var3 var6 (O_node (node (h (getnode (read var3 var6))) var2))) var5 var0 var2 var8 var4 var1 var7 var6))))
(assert (forall ((var0 Int) (var1 Addr) (var2 Addr) (var3 Addr) (var4 Heap) (var5 Addr) (var6 Int) (var7 Addr) (var8 Addr) (var9 Addr)) (or (not (and (inv_main16 var4 var6 var1 var3 var9 var5 var2 var8 var7) (and (= var6 0) (not (= var0 0))))) (inv_main22 var4 var6 var1 var3 var9 var5 var2 var8 var7))))
(assert (forall ((var0 Addr) (var1 Heap) (var2 Addr) (var3 Addr) (var4 Heap) (var5 Addr) (var6 Int) (var7 Addr) (var8 Addr) (var9 Addr) (var10 Addr) (var11 Addr) (var12 Addr) (var13 Int) (var14 Addr) (var15 Addr) (var16 Addr) (var17 Addr) (var18 Addr)) (or (not (and (inv_main47 var4 var6 var11 var15 var17 var5 var14 var8 var7) (and (= var13 0) (and (and (and (and (and (and (and (and (and (= var1 var4) (= var13 var6)) (= var3 var11)) (= var18 var15)) (= var16 var17)) (= var9 var5)) (= var2 var14)) (= var10 var8)) (= var12 var7)) (= var0 (n (getnode (read var4 var7)))))))) (inv_main51 var1 var13 var3 var18 var16 var9 var2 var10 var0))))
(assert (forall ((var0 Addr) (var1 Heap) (var2 Int) (var3 Int)) (or (not (inv_main8 var1 var2 var0 var3)) (inv_main8 var1 var2 var0 var3))))
(assert (forall ((var0 Heap) (var1 Int) (var2 node) (var3 Addr) (var4 Heap) (var5 Int)) (or (not (and (inv_main3 var4 var5) (and (= var3 nullAddr) (and (and (= var0 (newHeap (alloc var4 (O_node var2)))) (= var1 var5)) (= var3 (newAddr (alloc var4 (O_node var2)))))))) (inv_main8 var0 var1 var3 1))))
(assert (forall ((var0 Addr) (var1 Heap) (var2 Heap) (var3 Addr) (var4 Addr) (var5 Int) (var6 Addr) (var7 Addr) (var8 Addr) (var9 Addr) (var10 Int) (var11 Addr) (var12 Addr) (var13 Addr) (var14 Addr) (var15 Addr) (var16 Addr) (var17 Addr) (var18 Addr)) (or (not (and (inv_main59 var2 var5 var14 var17 var18 var4 var15 var9 var8) (and (not (= var16 nullAddr)) (and (and (and (and (and (and (and (and (and (= var1 var2) (= var10 var5)) (= var7 var14)) (= var12 var17)) (= var13 var18)) (= var0 var4)) (= var6 var15)) (= var11 var9)) (= var3 var8)) (= var16 (n (getnode (read var2 var8)))))))) (inv_main58 var1 var10 var7 var12 var13 var0 var6 var11 var16))))
(assert (forall ((var0 Addr) (var1 Addr) (var2 Addr) (var3 Addr) (var4 Heap) (var5 Addr) (var6 Int) (var7 Addr) (var8 Addr) (var9 Addr) (var10 Addr) (var11 Int) (var12 Addr) (var13 Addr) (var14 Int) (var15 Addr) (var16 Heap) (var17 Addr) (var18 Addr)) (or (not (and (inv_main43 var4 var6 var10 var15 var18 var5 var13 var9 var8) (and (not (= var1 nullAddr)) (and (= var14 3) (and (and (and (and (and (and (and (and (and (= var16 var4) (= var11 var6)) (= var12 var10)) (= var0 var15)) (= var1 var18)) (= var17 var5)) (= var7 var13)) (= var3 var9)) (= var2 var8)) (= var14 (h (getnode (read var4 var8))))))))) (inv_main58 var16 var11 var12 var0 var1 var17 var7 var3 var1))))
(assert (forall ((var0 Addr) (var1 Addr) (var2 Addr) (var3 Heap) (var4 Int) (var5 Addr) (var6 Int) (var7 Addr) (var8 Addr) (var9 Heap) (var10 Addr) (var11 Addr) (var12 Addr) (var13 Addr) (var14 Int) (var15 Addr) (var16 Addr) (var17 Addr) (var18 Addr)) (or (not (and (inv_main66 var3 var6 var12 var16 var18 var5 var15 var11 var10) (and (= var14 1) (and (and (and (and (and (and (and (and (and (= var9 var3) (= var4 var6)) (= var0 var12)) (= var8 var16)) (= var13 var18)) (= var7 var5)) (= var1 var15)) (= var2 var11)) (= var17 var10)) (= var14 (h (getnode (read var3 var10)))))))) (inv_main67 var9 var4 var0 var8 var13 var7 var1 var2 var17))))
(assert (forall ((var0 Addr) (var1 Heap) (var2 Addr) (var3 Addr) (var4 Heap) (var5 Addr) (var6 Int) (var7 Addr) (var8 Addr) (var9 Addr) (var10 Addr) (var11 Addr) (var12 Addr) (var13 Int) (var14 Addr) (var15 Addr) (var16 Addr) (var17 Addr) (var18 Addr)) (or (not (and (inv_main47 var4 var6 var11 var15 var17 var5 var14 var8 var7) (and (not (= var13 0)) (and (and (and (and (and (and (and (and (and (= var1 var4) (= var13 var6)) (= var3 var11)) (= var18 var15)) (= var16 var17)) (= var9 var5)) (= var2 var14)) (= var10 var8)) (= var12 var7)) (= var0 (n (getnode (read var4 var7)))))))) (inv_main50 var1 var13 var3 var18 var16 var9 var2 var10 var0))))
(assert (forall ((var0 Addr) (var1 Addr) (var2 Addr) (var3 Heap) (var4 Addr) (var5 Int) (var6 Addr) (var7 Addr) (var8 Addr)) (not (and (inv_main21 var3 var5 var0 var2 var8 var4 var1 var7 var6) (not (is-O_node (read var3 var6)))))))
(assert (forall ((var0 Addr) (var1 Addr) (var2 Addr) (var3 Heap) (var4 Addr) (var5 Int) (var6 Addr) (var7 Addr) (var8 Addr)) (not (and (inv_main22 var3 var5 var0 var2 var8 var4 var1 var7 var6) (not (is-O_node (read var3 var6)))))))
(assert (forall ((var0 Addr) (var1 Addr) (var2 Addr) (var3 Heap) (var4 Addr) (var5 Int) (var6 Addr) (var7 Addr) (var8 Addr)) (not (and (inv_main27 var3 var5 var0 var2 var8 var4 var1 var7 var6) (not (is-O_node (read var3 var6)))))))
(assert (forall ((var0 Addr) (var1 Addr) (var2 Addr) (var3 Heap) (var4 Addr) (var5 Int) (var6 Addr) (var7 Addr) (var8 Addr)) (not (and (inv_main33 var3 var5 var0 var2 var8 var4 var1 var7 var6) (not (is-O_node (read var3 var6)))))))
(assert (forall ((var0 Addr) (var1 Addr) (var2 Addr) (var3 Heap) (var4 Addr) (var5 Int) (var6 Addr) (var7 Addr) (var8 Addr)) (not (and (inv_main17 var3 var5 var0 var2 var8 var4 var1 var7 var6) (not (is-O_node (read var3 var6)))))))
(assert (forall ((var0 Addr) (var1 Addr) (var2 Addr) (var3 Heap) (var4 Addr) (var5 Int) (var6 Addr) (var7 Addr) (var8 Addr)) (not (and (inv_main35 var3 var5 var0 var2 var8 var4 var1 var7 var6) (not (is-O_node (read var3 var0)))))))
(assert (forall ((var0 Addr) (var1 Addr) (var2 Addr) (var3 Heap) (var4 Addr) (var5 Int) (var6 Addr) (var7 Addr) (var8 Addr)) (not (and (inv_main43 var3 var5 var0 var2 var8 var4 var1 var7 var6) (not (is-O_node (read var3 var6)))))))
(assert (forall ((var0 Addr) (var1 Addr) (var2 Addr) (var3 Heap) (var4 Addr) (var5 Int) (var6 Addr) (var7 Addr) (var8 Addr)) (not (and (inv_main47 var3 var5 var0 var2 var8 var4 var1 var7 var6) (not (is-O_node (read var3 var6)))))))
(assert (forall ((var0 Addr) (var1 Addr) (var2 Addr) (var3 Heap) (var4 Addr) (var5 Int) (var6 Addr) (var7 Addr) (var8 Addr)) (not (and (inv_main50 var3 var5 var0 var2 var8 var4 var1 var7 var6) (not (is-O_node (read var3 var2)))))))
(assert (forall ((var0 Addr) (var1 Addr) (var2 Addr) (var3 Heap) (var4 Addr) (var5 Int) (var6 Addr) (var7 Addr) (var8 Addr)) (not (and (inv_main51 var3 var5 var0 var2 var8 var4 var1 var7 var6) (not (is-O_node (read var3 var2)))))))
(assert (forall ((var0 Addr) (var1 Addr) (var2 Addr) (var3 Heap) (var4 Addr) (var5 Int) (var6 Addr) (var7 Addr) (var8 Addr)) (not (and (inv_main58 var3 var5 var0 var2 var8 var4 var1 var7 var6) (not (is-O_node (read var3 var6)))))))
(assert (forall ((var0 Addr) (var1 Addr) (var2 Addr) (var3 Heap) (var4 Addr) (var5 Int) (var6 Addr) (var7 Addr) (var8 Addr)) (not (and (inv_main59 var3 var5 var0 var2 var8 var4 var1 var7 var6) (not (is-O_node (read var3 var6)))))))
(assert (forall ((var0 Addr) (var1 Addr) (var2 Addr) (var3 Heap) (var4 Addr) (var5 Int) (var6 Addr) (var7 Addr) (var8 Addr)) (not (and (inv_main66 var3 var5 var0 var2 var8 var4 var1 var7 var6) (not (is-O_node (read var3 var6)))))))
(assert (forall ((var0 Addr) (var1 Addr) (var2 Addr) (var3 Heap) (var4 Addr) (var5 Int) (var6 Addr) (var7 Addr) (var8 Addr)) (not (and (inv_main67 var3 var5 var0 var2 var8 var4 var1 var7 var6) (not (is-O_node (read var3 var6)))))))
(assert (forall ((var0 Addr) (var1 Addr) (var2 Addr) (var3 Heap) (var4 Addr) (var5 Int) (var6 Addr) (var7 Addr) (var8 Addr)) (not (inv_main72 var3 var5 var0 var2 var8 var4 var1 var7 var6))))
(check-sat)
